#######################################
### Exact MIP solver for the HHCRSP ###
#######################################
-- Instance file: new-instances/HHCRSP_200_40_90_1.0_R_C.txt
-- Max threads: 4
-- Time limit: 999999 seconds
-- Use initial solution: No
Trivial flow violations prevented generating 342608 variables.
Version identifier: 20.1.0.0 | 2020-11-10 | 9bedb6d68
CPXPARAM_Threads                                 4
CPXPARAM_TimeLimit                               999999
Parallel mode: deterministic, using up to 4 threads for concurrent optimization:
 * Starting dual Simplex on 1 thread...
 * Starting Barrier on 3 threads...
Tried aggregator 1 time.
LP Presolve eliminated 19380 rows and 4231 columns.
Reduced LP has 336910 rows, 321197 columns, and 5513706 nonzeros.
Presolve time = 12.62 sec. (1293.57 ticks)
Symmetry aggregator did 485469 additional substitutions.
Initializing dual steep norms . . .

Iteration log . . .
Iteration:     1   Dual objective     =             0.666667
Iteration:   936   Dual objective     =           220.666667

Dual crossover.
  Dual:  Fixing 869 variables.
      868 DMoves:  Infeasibility  6.38655801e-13  Objective  2.22333333e+02
        0 DMoves:  Infeasibility  4.24521535e-13  Objective  2.22333333e+02
  Dual:  Pushed 23, exchanged 846.
  Primal:  Fixing 417 variables.
      416 PMoves:  Infeasibility  2.49800181e-16  Objective  2.22333333e+02
        0 PMoves:  Infeasibility  2.49800181e-16  Objective  2.22333333e+02
  Primal:  Pushed 323, exchanged 94.

Dual simplex solved model.


Solution status from MIP model:
-- Processing time: 20.999 sec.
-- Memory used: 385.283 MB
-- Best bound: inf
-- Obj value: 222.333
-- Gap: inf%
-- Total distance: 667
-- Total tardiness: 0
-- Largest tardiness: 0
